c created by edge2cnf
p cnf 500 3100
-1 -2 0
-1 -3 0
-1 -4 0
-1 -5 0
-2 -3 0
-2 -4 0
-2 -5 0
-3 -4 0
-3 -5 0
-4 -5 0
1 2 3 4 5 0
-6 -7 0
-6 -8 0
-6 -9 0
-6 -10 0
-7 -8 0
-7 -9 0
-7 -10 0
-8 -9 0
-8 -10 0
-9 -10 0
6 7 8 9 10 0
-11 -12 0
-11 -13 0
-11 -14 0
-11 -15 0
-12 -13 0
-12 -14 0
-12 -15 0
-13 -14 0
-13 -15 0
-14 -15 0
11 12 13 14 15 0
-16 -17 0
-16 -18 0
-16 -19 0
-16 -20 0
-17 -18 0
-17 -19 0
-17 -20 0
-18 -19 0
-18 -20 0
-19 -20 0
16 17 18 19 20 0
-21 -22 0
-21 -23 0
-21 -24 0
-21 -25 0
-22 -23 0
-22 -24 0
-22 -25 0
-23 -24 0
-23 -25 0
-24 -25 0
21 22 23 24 25 0
-26 -27 0
-26 -28 0
-26 -29 0
-26 -30 0
-27 -28 0
-27 -29 0
-27 -30 0
-28 -29 0
-28 -30 0
-29 -30 0
26 27 28 29 30 0
-31 -32 0
-31 -33 0
-31 -34 0
-31 -35 0
-32 -33 0
-32 -34 0
-32 -35 0
-33 -34 0
-33 -35 0
-34 -35 0
31 32 33 34 35 0
-36 -37 0
-36 -38 0
-36 -39 0
-36 -40 0
-37 -38 0
-37 -39 0
-37 -40 0
-38 -39 0
-38 -40 0
-39 -40 0
36 37 38 39 40 0
-41 -42 0
-41 -43 0
-41 -44 0
-41 -45 0
-42 -43 0
-42 -44 0
-42 -45 0
-43 -44 0
-43 -45 0
-44 -45 0
41 42 43 44 45 0
-46 -47 0
-46 -48 0
-46 -49 0
-46 -50 0
-47 -48 0
-47 -49 0
-47 -50 0
-48 -49 0
-48 -50 0
-49 -50 0
46 47 48 49 50 0
-51 -52 0
-51 -53 0
-51 -54 0
-51 -55 0
-52 -53 0
-52 -54 0
-52 -55 0
-53 -54 0
-53 -55 0
-54 -55 0
51 52 53 54 55 0
-56 -57 0
-56 -58 0
-56 -59 0
-56 -60 0
-57 -58 0
-57 -59 0
-57 -60 0
-58 -59 0
-58 -60 0
-59 -60 0
56 57 58 59 60 0
-61 -62 0
-61 -63 0
-61 -64 0
-61 -65 0
-62 -63 0
-62 -64 0
-62 -65 0
-63 -64 0
-63 -65 0
-64 -65 0
61 62 63 64 65 0
-66 -67 0
-66 -68 0
-66 -69 0
-66 -70 0
-67 -68 0
-67 -69 0
-67 -70 0
-68 -69 0
-68 -70 0
-69 -70 0
66 67 68 69 70 0
-71 -72 0
-71 -73 0
-71 -74 0
-71 -75 0
-72 -73 0
-72 -74 0
-72 -75 0
-73 -74 0
-73 -75 0
-74 -75 0
71 72 73 74 75 0
-76 -77 0
-76 -78 0
-76 -79 0
-76 -80 0
-77 -78 0
-77 -79 0
-77 -80 0
-78 -79 0
-78 -80 0
-79 -80 0
76 77 78 79 80 0
-81 -82 0
-81 -83 0
-81 -84 0
-81 -85 0
-82 -83 0
-82 -84 0
-82 -85 0
-83 -84 0
-83 -85 0
-84 -85 0
81 82 83 84 85 0
-86 -87 0
-86 -88 0
-86 -89 0
-86 -90 0
-87 -88 0
-87 -89 0
-87 -90 0
-88 -89 0
-88 -90 0
-89 -90 0
86 87 88 89 90 0
-91 -92 0
-91 -93 0
-91 -94 0
-91 -95 0
-92 -93 0
-92 -94 0
-92 -95 0
-93 -94 0
-93 -95 0
-94 -95 0
91 92 93 94 95 0
-96 -97 0
-96 -98 0
-96 -99 0
-96 -100 0
-97 -98 0
-97 -99 0
-97 -100 0
-98 -99 0
-98 -100 0
-99 -100 0
96 97 98 99 100 0
-101 -102 0
-101 -103 0
-101 -104 0
-101 -105 0
-102 -103 0
-102 -104 0
-102 -105 0
-103 -104 0
-103 -105 0
-104 -105 0
101 102 103 104 105 0
-106 -107 0
-106 -108 0
-106 -109 0
-106 -110 0
-107 -108 0
-107 -109 0
-107 -110 0
-108 -109 0
-108 -110 0
-109 -110 0
106 107 108 109 110 0
-111 -112 0
-111 -113 0
-111 -114 0
-111 -115 0
-112 -113 0
-112 -114 0
-112 -115 0
-113 -114 0
-113 -115 0
-114 -115 0
111 112 113 114 115 0
-116 -117 0
-116 -118 0
-116 -119 0
-116 -120 0
-117 -118 0
-117 -119 0
-117 -120 0
-118 -119 0
-118 -120 0
-119 -120 0
116 117 118 119 120 0
-121 -122 0
-121 -123 0
-121 -124 0
-121 -125 0
-122 -123 0
-122 -124 0
-122 -125 0
-123 -124 0
-123 -125 0
-124 -125 0
121 122 123 124 125 0
-126 -127 0
-126 -128 0
-126 -129 0
-126 -130 0
-127 -128 0
-127 -129 0
-127 -130 0
-128 -129 0
-128 -130 0
-129 -130 0
126 127 128 129 130 0
-131 -132 0
-131 -133 0
-131 -134 0
-131 -135 0
-132 -133 0
-132 -134 0
-132 -135 0
-133 -134 0
-133 -135 0
-134 -135 0
131 132 133 134 135 0
-136 -137 0
-136 -138 0
-136 -139 0
-136 -140 0
-137 -138 0
-137 -139 0
-137 -140 0
-138 -139 0
-138 -140 0
-139 -140 0
136 137 138 139 140 0
-141 -142 0
-141 -143 0
-141 -144 0
-141 -145 0
-142 -143 0
-142 -144 0
-142 -145 0
-143 -144 0
-143 -145 0
-144 -145 0
141 142 143 144 145 0
-146 -147 0
-146 -148 0
-146 -149 0
-146 -150 0
-147 -148 0
-147 -149 0
-147 -150 0
-148 -149 0
-148 -150 0
-149 -150 0
146 147 148 149 150 0
-151 -152 0
-151 -153 0
-151 -154 0
-151 -155 0
-152 -153 0
-152 -154 0
-152 -155 0
-153 -154 0
-153 -155 0
-154 -155 0
151 152 153 154 155 0
-156 -157 0
-156 -158 0
-156 -159 0
-156 -160 0
-157 -158 0
-157 -159 0
-157 -160 0
-158 -159 0
-158 -160 0
-159 -160 0
156 157 158 159 160 0
-161 -162 0
-161 -163 0
-161 -164 0
-161 -165 0
-162 -163 0
-162 -164 0
-162 -165 0
-163 -164 0
-163 -165 0
-164 -165 0
161 162 163 164 165 0
-166 -167 0
-166 -168 0
-166 -169 0
-166 -170 0
-167 -168 0
-167 -169 0
-167 -170 0
-168 -169 0
-168 -170 0
-169 -170 0
166 167 168 169 170 0
-171 -172 0
-171 -173 0
-171 -174 0
-171 -175 0
-172 -173 0
-172 -174 0
-172 -175 0
-173 -174 0
-173 -175 0
-174 -175 0
171 172 173 174 175 0
-176 -177 0
-176 -178 0
-176 -179 0
-176 -180 0
-177 -178 0
-177 -179 0
-177 -180 0
-178 -179 0
-178 -180 0
-179 -180 0
176 177 178 179 180 0
-181 -182 0
-181 -183 0
-181 -184 0
-181 -185 0
-182 -183 0
-182 -184 0
-182 -185 0
-183 -184 0
-183 -185 0
-184 -185 0
181 182 183 184 185 0
-186 -187 0
-186 -188 0
-186 -189 0
-186 -190 0
-187 -188 0
-187 -189 0
-187 -190 0
-188 -189 0
-188 -190 0
-189 -190 0
186 187 188 189 190 0
-191 -192 0
-191 -193 0
-191 -194 0
-191 -195 0
-192 -193 0
-192 -194 0
-192 -195 0
-193 -194 0
-193 -195 0
-194 -195 0
191 192 193 194 195 0
-196 -197 0
-196 -198 0
-196 -199 0
-196 -200 0
-197 -198 0
-197 -199 0
-197 -200 0
-198 -199 0
-198 -200 0
-199 -200 0
196 197 198 199 200 0
-201 -202 0
-201 -203 0
-201 -204 0
-201 -205 0
-202 -203 0
-202 -204 0
-202 -205 0
-203 -204 0
-203 -205 0
-204 -205 0
201 202 203 204 205 0
-206 -207 0
-206 -208 0
-206 -209 0
-206 -210 0
-207 -208 0
-207 -209 0
-207 -210 0
-208 -209 0
-208 -210 0
-209 -210 0
206 207 208 209 210 0
-211 -212 0
-211 -213 0
-211 -214 0
-211 -215 0
-212 -213 0
-212 -214 0
-212 -215 0
-213 -214 0
-213 -215 0
-214 -215 0
211 212 213 214 215 0
-216 -217 0
-216 -218 0
-216 -219 0
-216 -220 0
-217 -218 0
-217 -219 0
-217 -220 0
-218 -219 0
-218 -220 0
-219 -220 0
216 217 218 219 220 0
-221 -222 0
-221 -223 0
-221 -224 0
-221 -225 0
-222 -223 0
-222 -224 0
-222 -225 0
-223 -224 0
-223 -225 0
-224 -225 0
221 222 223 224 225 0
-226 -227 0
-226 -228 0
-226 -229 0
-226 -230 0
-227 -228 0
-227 -229 0
-227 -230 0
-228 -229 0
-228 -230 0
-229 -230 0
226 227 228 229 230 0
-231 -232 0
-231 -233 0
-231 -234 0
-231 -235 0
-232 -233 0
-232 -234 0
-232 -235 0
-233 -234 0
-233 -235 0
-234 -235 0
231 232 233 234 235 0
-236 -237 0
-236 -238 0
-236 -239 0
-236 -240 0
-237 -238 0
-237 -239 0
-237 -240 0
-238 -239 0
-238 -240 0
-239 -240 0
236 237 238 239 240 0
-241 -242 0
-241 -243 0
-241 -244 0
-241 -245 0
-242 -243 0
-242 -244 0
-242 -245 0
-243 -244 0
-243 -245 0
-244 -245 0
241 242 243 244 245 0
-246 -247 0
-246 -248 0
-246 -249 0
-246 -250 0
-247 -248 0
-247 -249 0
-247 -250 0
-248 -249 0
-248 -250 0
-249 -250 0
246 247 248 249 250 0
-251 -252 0
-251 -253 0
-251 -254 0
-251 -255 0
-252 -253 0
-252 -254 0
-252 -255 0
-253 -254 0
-253 -255 0
-254 -255 0
251 252 253 254 255 0
-256 -257 0
-256 -258 0
-256 -259 0
-256 -260 0
-257 -258 0
-257 -259 0
-257 -260 0
-258 -259 0
-258 -260 0
-259 -260 0
256 257 258 259 260 0
-261 -262 0
-261 -263 0
-261 -264 0
-261 -265 0
-262 -263 0
-262 -264 0
-262 -265 0
-263 -264 0
-263 -265 0
-264 -265 0
261 262 263 264 265 0
-266 -267 0
-266 -268 0
-266 -269 0
-266 -270 0
-267 -268 0
-267 -269 0
-267 -270 0
-268 -269 0
-268 -270 0
-269 -270 0
266 267 268 269 270 0
-271 -272 0
-271 -273 0
-271 -274 0
-271 -275 0
-272 -273 0
-272 -274 0
-272 -275 0
-273 -274 0
-273 -275 0
-274 -275 0
271 272 273 274 275 0
-276 -277 0
-276 -278 0
-276 -279 0
-276 -280 0
-277 -278 0
-277 -279 0
-277 -280 0
-278 -279 0
-278 -280 0
-279 -280 0
276 277 278 279 280 0
-281 -282 0
-281 -283 0
-281 -284 0
-281 -285 0
-282 -283 0
-282 -284 0
-282 -285 0
-283 -284 0
-283 -285 0
-284 -285 0
281 282 283 284 285 0
-286 -287 0
-286 -288 0
-286 -289 0
-286 -290 0
-287 -288 0
-287 -289 0
-287 -290 0
-288 -289 0
-288 -290 0
-289 -290 0
286 287 288 289 290 0
-291 -292 0
-291 -293 0
-291 -294 0
-291 -295 0
-292 -293 0
-292 -294 0
-292 -295 0
-293 -294 0
-293 -295 0
-294 -295 0
291 292 293 294 295 0
-296 -297 0
-296 -298 0
-296 -299 0
-296 -300 0
-297 -298 0
-297 -299 0
-297 -300 0
-298 -299 0
-298 -300 0
-299 -300 0
296 297 298 299 300 0
-301 -302 0
-301 -303 0
-301 -304 0
-301 -305 0
-302 -303 0
-302 -304 0
-302 -305 0
-303 -304 0
-303 -305 0
-304 -305 0
301 302 303 304 305 0
-306 -307 0
-306 -308 0
-306 -309 0
-306 -310 0
-307 -308 0
-307 -309 0
-307 -310 0
-308 -309 0
-308 -310 0
-309 -310 0
306 307 308 309 310 0
-311 -312 0
-311 -313 0
-311 -314 0
-311 -315 0
-312 -313 0
-312 -314 0
-312 -315 0
-313 -314 0
-313 -315 0
-314 -315 0
311 312 313 314 315 0
-316 -317 0
-316 -318 0
-316 -319 0
-316 -320 0
-317 -318 0
-317 -319 0
-317 -320 0
-318 -319 0
-318 -320 0
-319 -320 0
316 317 318 319 320 0
-321 -322 0
-321 -323 0
-321 -324 0
-321 -325 0
-322 -323 0
-322 -324 0
-322 -325 0
-323 -324 0
-323 -325 0
-324 -325 0
321 322 323 324 325 0
-326 -327 0
-326 -328 0
-326 -329 0
-326 -330 0
-327 -328 0
-327 -329 0
-327 -330 0
-328 -329 0
-328 -330 0
-329 -330 0
326 327 328 329 330 0
-331 -332 0
-331 -333 0
-331 -334 0
-331 -335 0
-332 -333 0
-332 -334 0
-332 -335 0
-333 -334 0
-333 -335 0
-334 -335 0
331 332 333 334 335 0
-336 -337 0
-336 -338 0
-336 -339 0
-336 -340 0
-337 -338 0
-337 -339 0
-337 -340 0
-338 -339 0
-338 -340 0
-339 -340 0
336 337 338 339 340 0
-341 -342 0
-341 -343 0
-341 -344 0
-341 -345 0
-342 -343 0
-342 -344 0
-342 -345 0
-343 -344 0
-343 -345 0
-344 -345 0
341 342 343 344 345 0
-346 -347 0
-346 -348 0
-346 -349 0
-346 -350 0
-347 -348 0
-347 -349 0
-347 -350 0
-348 -349 0
-348 -350 0
-349 -350 0
346 347 348 349 350 0
-351 -352 0
-351 -353 0
-351 -354 0
-351 -355 0
-352 -353 0
-352 -354 0
-352 -355 0
-353 -354 0
-353 -355 0
-354 -355 0
351 352 353 354 355 0
-356 -357 0
-356 -358 0
-356 -359 0
-356 -360 0
-357 -358 0
-357 -359 0
-357 -360 0
-358 -359 0
-358 -360 0
-359 -360 0
356 357 358 359 360 0
-361 -362 0
-361 -363 0
-361 -364 0
-361 -365 0
-362 -363 0
-362 -364 0
-362 -365 0
-363 -364 0
-363 -365 0
-364 -365 0
361 362 363 364 365 0
-366 -367 0
-366 -368 0
-366 -369 0
-366 -370 0
-367 -368 0
-367 -369 0
-367 -370 0
-368 -369 0
-368 -370 0
-369 -370 0
366 367 368 369 370 0
-371 -372 0
-371 -373 0
-371 -374 0
-371 -375 0
-372 -373 0
-372 -374 0
-372 -375 0
-373 -374 0
-373 -375 0
-374 -375 0
371 372 373 374 375 0
-376 -377 0
-376 -378 0
-376 -379 0
-376 -380 0
-377 -378 0
-377 -379 0
-377 -380 0
-378 -379 0
-378 -380 0
-379 -380 0
376 377 378 379 380 0
-381 -382 0
-381 -383 0
-381 -384 0
-381 -385 0
-382 -383 0
-382 -384 0
-382 -385 0
-383 -384 0
-383 -385 0
-384 -385 0
381 382 383 384 385 0
-386 -387 0
-386 -388 0
-386 -389 0
-386 -390 0
-387 -388 0
-387 -389 0
-387 -390 0
-388 -389 0
-388 -390 0
-389 -390 0
386 387 388 389 390 0
-391 -392 0
-391 -393 0
-391 -394 0
-391 -395 0
-392 -393 0
-392 -394 0
-392 -395 0
-393 -394 0
-393 -395 0
-394 -395 0
391 392 393 394 395 0
-396 -397 0
-396 -398 0
-396 -399 0
-396 -400 0
-397 -398 0
-397 -399 0
-397 -400 0
-398 -399 0
-398 -400 0
-399 -400 0
396 397 398 399 400 0
-401 -402 0
-401 -403 0
-401 -404 0
-401 -405 0
-402 -403 0
-402 -404 0
-402 -405 0
-403 -404 0
-403 -405 0
-404 -405 0
401 402 403 404 405 0
-406 -407 0
-406 -408 0
-406 -409 0
-406 -410 0
-407 -408 0
-407 -409 0
-407 -410 0
-408 -409 0
-408 -410 0
-409 -410 0
406 407 408 409 410 0
-411 -412 0
-411 -413 0
-411 -414 0
-411 -415 0
-412 -413 0
-412 -414 0
-412 -415 0
-413 -414 0
-413 -415 0
-414 -415 0
411 412 413 414 415 0
-416 -417 0
-416 -418 0
-416 -419 0
-416 -420 0
-417 -418 0
-417 -419 0
-417 -420 0
-418 -419 0
-418 -420 0
-419 -420 0
416 417 418 419 420 0
-421 -422 0
-421 -423 0
-421 -424 0
-421 -425 0
-422 -423 0
-422 -424 0
-422 -425 0
-423 -424 0
-423 -425 0
-424 -425 0
421 422 423 424 425 0
-426 -427 0
-426 -428 0
-426 -429 0
-426 -430 0
-427 -428 0
-427 -429 0
-427 -430 0
-428 -429 0
-428 -430 0
-429 -430 0
426 427 428 429 430 0
-431 -432 0
-431 -433 0
-431 -434 0
-431 -435 0
-432 -433 0
-432 -434 0
-432 -435 0
-433 -434 0
-433 -435 0
-434 -435 0
431 432 433 434 435 0
-436 -437 0
-436 -438 0
-436 -439 0
-436 -440 0
-437 -438 0
-437 -439 0
-437 -440 0
-438 -439 0
-438 -440 0
-439 -440 0
436 437 438 439 440 0
-441 -442 0
-441 -443 0
-441 -444 0
-441 -445 0
-442 -443 0
-442 -444 0
-442 -445 0
-443 -444 0
-443 -445 0
-444 -445 0
441 442 443 444 445 0
-446 -447 0
-446 -448 0
-446 -449 0
-446 -450 0
-447 -448 0
-447 -449 0
-447 -450 0
-448 -449 0
-448 -450 0
-449 -450 0
446 447 448 449 450 0
-451 -452 0
-451 -453 0
-451 -454 0
-451 -455 0
-452 -453 0
-452 -454 0
-452 -455 0
-453 -454 0
-453 -455 0
-454 -455 0
451 452 453 454 455 0
-456 -457 0
-456 -458 0
-456 -459 0
-456 -460 0
-457 -458 0
-457 -459 0
-457 -460 0
-458 -459 0
-458 -460 0
-459 -460 0
456 457 458 459 460 0
-461 -462 0
-461 -463 0
-461 -464 0
-461 -465 0
-462 -463 0
-462 -464 0
-462 -465 0
-463 -464 0
-463 -465 0
-464 -465 0
461 462 463 464 465 0
-466 -467 0
-466 -468 0
-466 -469 0
-466 -470 0
-467 -468 0
-467 -469 0
-467 -470 0
-468 -469 0
-468 -470 0
-469 -470 0
466 467 468 469 470 0
-471 -472 0
-471 -473 0
-471 -474 0
-471 -475 0
-472 -473 0
-472 -474 0
-472 -475 0
-473 -474 0
-473 -475 0
-474 -475 0
471 472 473 474 475 0
-476 -477 0
-476 -478 0
-476 -479 0
-476 -480 0
-477 -478 0
-477 -479 0
-477 -480 0
-478 -479 0
-478 -480 0
-479 -480 0
476 477 478 479 480 0
-481 -482 0
-481 -483 0
-481 -484 0
-481 -485 0
-482 -483 0
-482 -484 0
-482 -485 0
-483 -484 0
-483 -485 0
-484 -485 0
481 482 483 484 485 0
-486 -487 0
-486 -488 0
-486 -489 0
-486 -490 0
-487 -488 0
-487 -489 0
-487 -490 0
-488 -489 0
-488 -490 0
-489 -490 0
486 487 488 489 490 0
-491 -492 0
-491 -493 0
-491 -494 0
-491 -495 0
-492 -493 0
-492 -494 0
-492 -495 0
-493 -494 0
-493 -495 0
-494 -495 0
491 492 493 494 495 0
-496 -497 0
-496 -498 0
-496 -499 0
-496 -500 0
-497 -498 0
-497 -499 0
-497 -500 0
-498 -499 0
-498 -500 0
-499 -500 0
496 497 498 499 500 0
-1 -16 0
-2 -17 0
-3 -18 0
-4 -19 0
-5 -20 0
-16 -26 0
-17 -27 0
-18 -28 0
-19 -29 0
-20 -30 0
-21 -36 0
-22 -37 0
-23 -38 0
-24 -39 0
-25 -40 0
-36 -46 0
-37 -47 0
-38 -48 0
-39 -49 0
-40 -50 0
-76 -96 0
-77 -97 0
-78 -98 0
-79 -99 0
-80 -100 0
-81 -86 0
-82 -87 0
-83 -88 0
-84 -89 0
-85 -90 0
-86 -96 0
-87 -97 0
-88 -98 0
-89 -99 0
-90 -100 0
-96 -111 0
-97 -112 0
-98 -113 0
-99 -114 0
-100 -115 0
-101 -106 0
-102 -107 0
-103 -108 0
-104 -109 0
-105 -110 0
-116 -131 0
-117 -132 0
-118 -133 0
-119 -134 0
-120 -135 0
-121 -126 0
-122 -127 0
-123 -128 0
-124 -129 0
-125 -130 0
-136 -146 0
-137 -147 0
-138 -148 0
-139 -149 0
-140 -150 0
-141 -156 0
-142 -157 0
-143 -158 0
-144 -159 0
-145 -160 0
-146 -161 0
-147 -162 0
-148 -163 0
-149 -164 0
-150 -165 0
-176 -196 0
-177 -197 0
-178 -198 0
-179 -199 0
-180 -200 0
-206 -221 0
-207 -222 0
-208 -223 0
-209 -224 0
-210 -225 0
-211 -231 0
-212 -232 0
-213 -233 0
-214 -234 0
-215 -235 0
-221 -226 0
-222 -227 0
-223 -228 0
-224 -229 0
-225 -230 0
-221 -236 0
-222 -237 0
-223 -238 0
-224 -239 0
-225 -240 0
-226 -241 0
-227 -242 0
-228 -243 0
-229 -244 0
-230 -245 0
-236 -251 0
-237 -252 0
-238 -253 0
-239 -254 0
-240 -255 0
-271 -281 0
-272 -282 0
-273 -283 0
-274 -284 0
-275 -285 0
-276 -296 0
-277 -297 0
-278 -298 0
-279 -299 0
-280 -300 0
-281 -286 0
-282 -287 0
-283 -288 0
-284 -289 0
-285 -290 0
-301 -316 0
-302 -317 0
-303 -318 0
-304 -319 0
-305 -320 0
-331 -351 0
-332 -352 0
-333 -353 0
-334 -354 0
-335 -355 0
-341 -356 0
-342 -357 0
-343 -358 0
-344 -359 0
-345 -360 0
-346 -356 0
-347 -357 0
-348 -358 0
-349 -359 0
-350 -360 0
-356 -371 0
-357 -372 0
-358 -373 0
-359 -374 0
-360 -375 0
-371 -391 0
-372 -392 0
-373 -393 0
-374 -394 0
-375 -395 0
-406 -421 0
-407 -422 0
-408 -423 0
-409 -424 0
-410 -425 0
-416 -421 0
-417 -422 0
-418 -423 0
-419 -424 0
-420 -425 0
-416 -426 0
-417 -427 0
-418 -428 0
-419 -429 0
-420 -430 0
-451 -471 0
-452 -472 0
-453 -473 0
-454 -474 0
-455 -475 0
-456 -471 0
-457 -472 0
-458 -473 0
-459 -474 0
-460 -475 0
-1 -31 0
-2 -32 0
-3 -33 0
-4 -34 0
-5 -35 0
-1 -36 0
-2 -37 0
-3 -38 0
-4 -39 0
-5 -40 0
-1 -91 0
-2 -92 0
-3 -93 0
-4 -94 0
-5 -95 0
-1 -131 0
-2 -132 0
-3 -133 0
-4 -134 0
-5 -135 0
-1 -176 0
-2 -177 0
-3 -178 0
-4 -179 0
-5 -180 0
-1 -216 0
-2 -217 0
-3 -218 0
-4 -219 0
-5 -220 0
-1 -231 0
-2 -232 0
-3 -233 0
-4 -234 0
-5 -235 0
-6 -71 0
-7 -72 0
-8 -73 0
-9 -74 0
-10 -75 0
-6 -131 0
-7 -132 0
-8 -133 0
-9 -134 0
-10 -135 0
-6 -206 0
-7 -207 0
-8 -208 0
-9 -209 0
-10 -210 0
-6 -281 0
-7 -282 0
-8 -283 0
-9 -284 0
-10 -285 0
-6 -296 0
-7 -297 0
-8 -298 0
-9 -299 0
-10 -300 0
-6 -351 0
-7 -352 0
-8 -353 0
-9 -354 0
-10 -355 0
-6 -456 0
-7 -457 0
-8 -458 0
-9 -459 0
-10 -460 0
-11 -71 0
-12 -72 0
-13 -73 0
-14 -74 0
-15 -75 0
-11 -156 0
-12 -157 0
-13 -158 0
-14 -159 0
-15 -160 0
-11 -401 0
-12 -402 0
-13 -403 0
-14 -404 0
-15 -405 0
-16 -81 0
-17 -82 0
-18 -83 0
-19 -84 0
-20 -85 0
-16 -116 0
-17 -117 0
-18 -118 0
-19 -119 0
-20 -120 0
-16 -151 0
-17 -152 0
-18 -153 0
-19 -154 0
-20 -155 0
-16 -186 0
-17 -187 0
-18 -188 0
-19 -189 0
-20 -190 0
-16 -241 0
-17 -242 0
-18 -243 0
-19 -244 0
-20 -245 0
-16 -271 0
-17 -272 0
-18 -273 0
-19 -274 0
-20 -275 0
-16 -276 0
-17 -277 0
-18 -278 0
-19 -279 0
-20 -280 0
-16 -346 0
-17 -347 0
-18 -348 0
-19 -349 0
-20 -350 0
-16 -411 0
-17 -412 0
-18 -413 0
-19 -414 0
-20 -415 0
-16 -426 0
-17 -427 0
-18 -428 0
-19 -429 0
-20 -430 0
-21 -306 0
-22 -307 0
-23 -308 0
-24 -309 0
-25 -310 0
-21 -311 0
-22 -312 0
-23 -313 0
-24 -314 0
-25 -315 0
-21 -326 0
-22 -327 0
-23 -328 0
-24 -329 0
-25 -330 0
-21 -376 0
-22 -377 0
-23 -378 0
-24 -379 0
-25 -380 0
-21 -381 0
-22 -382 0
-23 -383 0
-24 -384 0
-25 -385 0
-21 -421 0
-22 -422 0
-23 -423 0
-24 -424 0
-25 -425 0
-21 -461 0
-22 -462 0
-23 -463 0
-24 -464 0
-25 -465 0
-26 -106 0
-27 -107 0
-28 -108 0
-29 -109 0
-30 -110 0
-26 -131 0
-27 -132 0
-28 -133 0
-29 -134 0
-30 -135 0
-26 -211 0
-27 -212 0
-28 -213 0
-29 -214 0
-30 -215 0
-26 -236 0
-27 -237 0
-28 -238 0
-29 -239 0
-30 -240 0
-26 -266 0
-27 -267 0
-28 -268 0
-29 -269 0
-30 -270 0
-26 -326 0
-27 -327 0
-28 -328 0
-29 -329 0
-30 -330 0
-26 -496 0
-27 -497 0
-28 -498 0
-29 -499 0
-30 -500 0
-31 -161 0
-32 -162 0
-33 -163 0
-34 -164 0
-35 -165 0
-31 -346 0
-32 -347 0
-33 -348 0
-34 -349 0
-35 -350 0
-31 -351 0
-32 -352 0
-33 -353 0
-34 -354 0
-35 -355 0
-31 -371 0
-32 -372 0
-33 -373 0
-34 -374 0
-35 -375 0
-31 -381 0
-32 -382 0
-33 -383 0
-34 -384 0
-35 -385 0
-31 -411 0
-32 -412 0
-33 -413 0
-34 -414 0
-35 -415 0
-36 -121 0
-37 -122 0
-38 -123 0
-39 -124 0
-40 -125 0
-36 -276 0
-37 -277 0
-38 -278 0
-39 -279 0
-40 -280 0
-36 -346 0
-37 -347 0
-38 -348 0
-39 -349 0
-40 -350 0
-36 -481 0
-37 -482 0
-38 -483 0
-39 -484 0
-40 -485 0
-36 -496 0
-37 -497 0
-38 -498 0
-39 -499 0
-40 -500 0
-41 -86 0
-42 -87 0
-43 -88 0
-44 -89 0
-45 -90 0
-41 -156 0
-42 -157 0
-43 -158 0
-44 -159 0
-45 -160 0
-41 -171 0
-42 -172 0
-43 -173 0
-44 -174 0
-45 -175 0
-41 -201 0
-42 -202 0
-43 -203 0
-44 -204 0
-45 -205 0
-46 -141 0
-47 -142 0
-48 -143 0
-49 -144 0
-50 -145 0
-46 -156 0
-47 -157 0
-48 -158 0
-49 -159 0
-50 -160 0
-46 -216 0
-47 -217 0
-48 -218 0
-49 -219 0
-50 -220 0
-46 -376 0
-47 -377 0
-48 -378 0
-49 -379 0
-50 -380 0
-46 -391 0
-47 -392 0
-48 -393 0
-49 -394 0
-50 -395 0
-46 -441 0
-47 -442 0
-48 -443 0
-49 -444 0
-50 -445 0
-46 -471 0
-47 -472 0
-48 -473 0
-49 -474 0
-50 -475 0
-46 -476 0
-47 -477 0
-48 -478 0
-49 -479 0
-50 -480 0
-51 -161 0
-52 -162 0
-53 -163 0
-54 -164 0
-55 -165 0
-51 -316 0
-52 -317 0
-53 -318 0
-54 -319 0
-55 -320 0
-51 -376 0
-52 -377 0
-53 -378 0
-54 -379 0
-55 -380 0
-51 -386 0
-52 -387 0
-53 -388 0
-54 -389 0
-55 -390 0
-51 -391 0
-52 -392 0
-53 -393 0
-54 -394 0
-55 -395 0
-51 -411 0
-52 -412 0
-53 -413 0
-54 -414 0
-55 -415 0
-56 -226 0
-57 -227 0
-58 -228 0
-59 -229 0
-60 -230 0
-56 -351 0
-57 -352 0
-58 -353 0
-59 -354 0
-60 -355 0
-56 -461 0
-57 -462 0
-58 -463 0
-59 -464 0
-60 -465 0
-61 -116 0
-62 -117 0
-63 -118 0
-64 -119 0
-65 -120 0
-61 -141 0
-62 -142 0
-63 -143 0
-64 -144 0
-65 -145 0
-61 -146 0
-62 -147 0
-63 -148 0
-64 -149 0
-65 -150 0
-61 -151 0
-62 -152 0
-63 -153 0
-64 -154 0
-65 -155 0
-61 -411 0
-62 -412 0
-63 -413 0
-64 -414 0
-65 -415 0
-66 -96 0
-67 -97 0
-68 -98 0
-69 -99 0
-70 -100 0
-66 -106 0
-67 -107 0
-68 -108 0
-69 -109 0
-70 -110 0
-66 -161 0
-67 -162 0
-68 -163 0
-69 -164 0
-70 -165 0
-66 -181 0
-67 -182 0
-68 -183 0
-69 -184 0
-70 -185 0
-66 -186 0
-67 -187 0
-68 -188 0
-69 -189 0
-70 -190 0
-66 -251 0
-67 -252 0
-68 -253 0
-69 -254 0
-70 -255 0
-66 -256 0
-67 -257 0
-68 -258 0
-69 -259 0
-70 -260 0
-66 -266 0
-67 -267 0
-68 -268 0
-69 -269 0
-70 -270 0
-66 -326 0
-67 -327 0
-68 -328 0
-69 -329 0
-70 -330 0
-66 -431 0
-67 -432 0
-68 -433 0
-69 -434 0
-70 -435 0
-66 -471 0
-67 -472 0
-68 -473 0
-69 -474 0
-70 -475 0
-71 -151 0
-72 -152 0
-73 -153 0
-74 -154 0
-75 -155 0
-71 -256 0
-72 -257 0
-73 -258 0
-74 -259 0
-75 -260 0
-71 -296 0
-72 -297 0
-73 -298 0
-74 -299 0
-75 -300 0
-71 -426 0
-72 -427 0
-73 -428 0
-74 -429 0
-75 -430 0
-76 -211 0
-77 -212 0
-78 -213 0
-79 -214 0
-80 -215 0
-76 -276 0
-77 -277 0
-78 -278 0
-79 -279 0
-80 -280 0
-76 -396 0
-77 -397 0
-78 -398 0
-79 -399 0
-80 -400 0
-76 -456 0
-77 -457 0
-78 -458 0
-79 -459 0
-80 -460 0
-81 -116 0
-82 -117 0
-83 -118 0
-84 -119 0
-85 -120 0
-81 -126 0
-82 -127 0
-83 -128 0
-84 -129 0
-85 -130 0
-81 -146 0
-82 -147 0
-83 -148 0
-84 -149 0
-85 -150 0
-81 -151 0
-82 -152 0
-83 -153 0
-84 -154 0
-85 -155 0
-81 -161 0
-82 -162 0
-83 -163 0
-84 -164 0
-85 -165 0
-81 -231 0
-82 -232 0
-83 -233 0
-84 -234 0
-85 -235 0
-81 -256 0
-82 -257 0
-83 -258 0
-84 -259 0
-85 -260 0
-81 -311 0
-82 -312 0
-83 -313 0
-84 -314 0
-85 -315 0
-81 -326 0
-82 -327 0
-83 -328 0
-84 -329 0
-85 -330 0
-81 -461 0
-82 -462 0
-83 -463 0
-84 -464 0
-85 -465 0
-86 -196 0
-87 -197 0
-88 -198 0
-89 -199 0
-90 -200 0
-86 -201 0
-87 -202 0
-88 -203 0
-89 -204 0
-90 -205 0
-86 -236 0
-87 -237 0
-88 -238 0
-89 -239 0
-90 -240 0
-86 -301 0
-87 -302 0
-88 -303 0
-89 -304 0
-90 -305 0
-86 -426 0
-87 -427 0
-88 -428 0
-89 -429 0
-90 -430 0
-91 -216 0
-92 -217 0
-93 -218 0
-94 -219 0
-95 -220 0
-91 -236 0
-92 -237 0
-93 -238 0
-94 -239 0
-95 -240 0
-91 -256 0
-92 -257 0
-93 -258 0
-94 -259 0
-95 -260 0
-91 -296 0
-92 -297 0
-93 -298 0
-94 -299 0
-95 -300 0
-91 -351 0
-92 -352 0
-93 -353 0
-94 -354 0
-95 -355 0
-91 -396 0
-92 -397 0
-93 -398 0
-94 -399 0
-95 -400 0
-91 -421 0
-92 -422 0
-93 -423 0
-94 -424 0
-95 -425 0
-96 -421 0
-97 -422 0
-98 -423 0
-99 -424 0
-100 -425 0
-96 -426 0
-97 -427 0
-98 -428 0
-99 -429 0
-100 -430 0
-96 -441 0
-97 -442 0
-98 -443 0
-99 -444 0
-100 -445 0
-96 -481 0
-97 -482 0
-98 -483 0
-99 -484 0
-100 -485 0
-96 -496 0
-97 -497 0
-98 -498 0
-99 -499 0
-100 -500 0
-101 -231 0
-102 -232 0
-103 -233 0
-104 -234 0
-105 -235 0
-101 -291 0
-102 -292 0
-103 -293 0
-104 -294 0
-105 -295 0
-101 -301 0
-102 -302 0
-103 -303 0
-104 -304 0
-105 -305 0
-101 -326 0
-102 -327 0
-103 -328 0
-104 -329 0
-105 -330 0
-101 -336 0
-102 -337 0
-103 -338 0
-104 -339 0
-105 -340 0
-101 -391 0
-102 -392 0
-103 -393 0
-104 -394 0
-105 -395 0
-101 -406 0
-102 -407 0
-103 -408 0
-104 -409 0
-105 -410 0
-101 -411 0
-102 -412 0
-103 -413 0
-104 -414 0
-105 -415 0
-101 -426 0
-102 -427 0
-103 -428 0
-104 -429 0
-105 -430 0
-101 -436 0
-102 -437 0
-103 -438 0
-104 -439 0
-105 -440 0
-106 -161 0
-107 -162 0
-108 -163 0
-109 -164 0
-110 -165 0
-106 -186 0
-107 -187 0
-108 -188 0
-109 -189 0
-110 -190 0
-106 -216 0
-107 -217 0
-108 -218 0
-109 -219 0
-110 -220 0
-106 -336 0
-107 -337 0
-108 -338 0
-109 -339 0
-110 -340 0
-106 -366 0
-107 -367 0
-108 -368 0
-109 -369 0
-110 -370 0
-106 -406 0
-107 -407 0
-108 -408 0
-109 -409 0
-110 -410 0
-106 -441 0
-107 -442 0
-108 -443 0
-109 -444 0
-110 -445 0
-111 -136 0
-112 -137 0
-113 -138 0
-114 -139 0
-115 -140 0
-111 -151 0
-112 -152 0
-113 -153 0
-114 -154 0
-115 -155 0
-111 -401 0
-112 -402 0
-113 -403 0
-114 -404 0
-115 -405 0
-111 -436 0
-112 -437 0
-113 -438 0
-114 -439 0
-115 -440 0
-111 -466 0
-112 -467 0
-113 -468 0
-114 -469 0
-115 -470 0
-116 -216 0
-117 -217 0
-118 -218 0
-119 -219 0
-120 -220 0
-116 -281 0
-117 -282 0
-118 -283 0
-119 -284 0
-120 -285 0
-116 -411 0
-117 -412 0
-118 -413 0
-119 -414 0
-120 -415 0
-121 -181 0
-122 -182 0
-123 -183 0
-124 -184 0
-125 -185 0
-121 -221 0
-122 -222 0
-123 -223 0
-124 -224 0
-125 -225 0
-121 -271 0
-122 -272 0
-123 -273 0
-124 -274 0
-125 -275 0
-121 -361 0
-122 -362 0
-123 -363 0
-124 -364 0
-125 -365 0
-121 -381 0
-122 -382 0
-123 -383 0
-124 -384 0
-125 -385 0
-121 -386 0
-122 -387 0
-123 -388 0
-124 -389 0
-125 -390 0
-121 -396 0
-122 -397 0
-123 -398 0
-124 -399 0
-125 -400 0
-121 -406 0
-122 -407 0
-123 -408 0
-124 -409 0
-125 -410 0
-121 -421 0
-122 -422 0
-123 -423 0
-124 -424 0
-125 -425 0
-121 -426 0
-122 -427 0
-123 -428 0
-124 -429 0
-125 -430 0
-121 -461 0
-122 -462 0
-123 -463 0
-124 -464 0
-125 -465 0
-121 -486 0
-122 -487 0
-123 -488 0
-124 -489 0
-125 -490 0
-126 -156 0
-127 -157 0
-128 -158 0
-129 -159 0
-130 -160 0
-126 -186 0
-127 -187 0
-128 -188 0
-129 -189 0
-130 -190 0
-126 -191 0
-127 -192 0
-128 -193 0
-129 -194 0
-130 -195 0
-126 -196 0
-127 -197 0
-128 -198 0
-129 -199 0
-130 -200 0
-126 -226 0
-127 -227 0
-128 -228 0
-129 -229 0
-130 -230 0
-126 -231 0
-127 -232 0
-128 -233 0
-129 -234 0
-130 -235 0
-126 -261 0
-127 -262 0
-128 -263 0
-129 -264 0
-130 -265 0
-126 -271 0
-127 -272 0
-128 -273 0
-129 -274 0
-130 -275 0
-126 -306 0
-127 -307 0
-128 -308 0
-129 -309 0
-130 -310 0
-126 -331 0
-127 -332 0
-128 -333 0
-129 -334 0
-130 -335 0
-126 -336 0
-127 -337 0
-128 -338 0
-129 -339 0
-130 -340 0
-126 -401 0
-127 -402 0
-128 -403 0
-129 -404 0
-130 -405 0
-126 -441 0
-127 -442 0
-128 -443 0
-129 -444 0
-130 -445 0
-126 -456 0
-127 -457 0
-128 -458 0
-129 -459 0
-130 -460 0
-126 -496 0
-127 -497 0
-128 -498 0
-129 -499 0
-130 -500 0
-131 -261 0
-132 -262 0
-133 -263 0
-134 -264 0
-135 -265 0
-131 -346 0
-132 -347 0
-133 -348 0
-134 -349 0
-135 -350 0
-131 -416 0
-132 -417 0
-133 -418 0
-134 -419 0
-135 -420 0
-131 -491 0
-132 -492 0
-133 -493 0
-134 -494 0
-135 -495 0
-136 -211 0
-137 -212 0
-138 -213 0
-139 -214 0
-140 -215 0
-136 -241 0
-137 -242 0
-138 -243 0
-139 -244 0
-140 -245 0
-136 -266 0
-137 -267 0
-138 -268 0
-139 -269 0
-140 -270 0
-136 -361 0
-137 -362 0
-138 -363 0
-139 -364 0
-140 -365 0
-136 -436 0
-137 -437 0
-138 -438 0
-139 -439 0
-140 -440 0
-136 -441 0
-137 -442 0
-138 -443 0
-139 -444 0
-140 -445 0
-136 -451 0
-137 -452 0
-138 -453 0
-139 -454 0
-140 -455 0
-136 -471 0
-137 -472 0
-138 -473 0
-139 -474 0
-140 -475 0
-141 -186 0
-142 -187 0
-143 -188 0
-144 -189 0
-145 -190 0
-141 -251 0
-142 -252 0
-143 -253 0
-144 -254 0
-145 -255 0
-141 -271 0
-142 -272 0
-143 -273 0
-144 -274 0
-145 -275 0
-141 -286 0
-142 -287 0
-143 -288 0
-144 -289 0
-145 -290 0
-141 -316 0
-142 -317 0
-143 -318 0
-144 -319 0
-145 -320 0
-141 -421 0
-142 -422 0
-143 -423 0
-144 -424 0
-145 -425 0
-141 -441 0
-142 -442 0
-143 -443 0
-144 -444 0
-145 -445 0
-146 -186 0
-147 -187 0
-148 -188 0
-149 -189 0
-150 -190 0
-146 -246 0
-147 -247 0
-148 -248 0
-149 -249 0
-150 -250 0
-146 -256 0
-147 -257 0
-148 -258 0
-149 -259 0
-150 -260 0
-146 -316 0
-147 -317 0
-148 -318 0
-149 -319 0
-150 -320 0
-146 -486 0
-147 -487 0
-148 -488 0
-149 -489 0
-150 -490 0
-151 -216 0
-152 -217 0
-153 -218 0
-154 -219 0
-155 -220 0
-151 -241 0
-152 -242 0
-153 -243 0
-154 -244 0
-155 -245 0
-151 -421 0
-152 -422 0
-153 -423 0
-154 -424 0
-155 -425 0
-151 -441 0
-152 -442 0
-153 -443 0
-154 -444 0
-155 -445 0
-151 -476 0
-152 -477 0
-153 -478 0
-154 -479 0
-155 -480 0
-156 -381 0
-157 -382 0
-158 -383 0
-159 -384 0
-160 -385 0
-156 -436 0
-157 -437 0
-158 -438 0
-159 -439 0
-160 -440 0
-156 -441 0
-157 -442 0
-158 -443 0
-159 -444 0
-160 -445 0
-161 -226 0
-162 -227 0
-163 -228 0
-164 -229 0
-165 -230 0
-161 -256 0
-162 -257 0
-163 -258 0
-164 -259 0
-165 -260 0
-161 -346 0
-162 -347 0
-163 -348 0
-164 -349 0
-165 -350 0
-161 -371 0
-162 -372 0
-163 -373 0
-164 -374 0
-165 -375 0
-166 -341 0
-167 -342 0
-168 -343 0
-169 -344 0
-170 -345 0
-171 -206 0
-172 -207 0
-173 -208 0
-174 -209 0
-175 -210 0
-171 -216 0
-172 -217 0
-173 -218 0
-174 -219 0
-175 -220 0
-171 -231 0
-172 -232 0
-173 -233 0
-174 -234 0
-175 -235 0
-171 -261 0
-172 -262 0
-173 -263 0
-174 -264 0
-175 -265 0
-171 -276 0
-172 -277 0
-173 -278 0
-174 -279 0
-175 -280 0
-171 -356 0
-172 -357 0
-173 -358 0
-174 -359 0
-175 -360 0
-171 -411 0
-172 -412 0
-173 -413 0
-174 -414 0
-175 -415 0
-171 -466 0
-172 -467 0
-173 -468 0
-174 -469 0
-175 -470 0
-176 -286 0
-177 -287 0
-178 -288 0
-179 -289 0
-180 -290 0
-176 -296 0
-177 -297 0
-178 -298 0
-179 -299 0
-180 -300 0
-176 -321 0
-177 -322 0
-178 -323 0
-179 -324 0
-180 -325 0
-176 -366 0
-177 -367 0
-178 -368 0
-179 -369 0
-180 -370 0
-176 -371 0
-177 -372 0
-178 -373 0
-179 -374 0
-180 -375 0
-176 -476 0
-177 -477 0
-178 -478 0
-179 -479 0
-180 -480 0
-181 -231 0
-182 -232 0
-183 -233 0
-184 -234 0
-185 -235 0
-181 -271 0
-182 -272 0
-183 -273 0
-184 -274 0
-185 -275 0
-181 -301 0
-182 -302 0
-183 -303 0
-184 -304 0
-185 -305 0
-181 -311 0
-182 -312 0
-183 -313 0
-184 -314 0
-185 -315 0
-181 -316 0
-182 -317 0
-183 -318 0
-184 -319 0
-185 -320 0
-181 -376 0
-182 -377 0
-183 -378 0
-184 -379 0
-185 -380 0
-181 -441 0
-182 -442 0
-183 -443 0
-184 -444 0
-185 -445 0
-186 -211 0
-187 -212 0
-188 -213 0
-189 -214 0
-190 -215 0
-186 -261 0
-187 -262 0
-188 -263 0
-189 -264 0
-190 -265 0
-186 -266 0
-187 -267 0
-188 -268 0
-189 -269 0
-190 -270 0
-186 -316 0
-187 -317 0
-188 -318 0
-189 -319 0
-190 -320 0
-186 -381 0
-187 -382 0
-188 -383 0
-189 -384 0
-190 -385 0
-186 -436 0
-187 -437 0
-188 -438 0
-189 -439 0
-190 -440 0
-186 -441 0
-187 -442 0
-188 -443 0
-189 -444 0
-190 -445 0
-186 -486 0
-187 -487 0
-188 -488 0
-189 -489 0
-190 -490 0
-191 -216 0
-192 -217 0
-193 -218 0
-194 -219 0
-195 -220 0
-191 -271 0
-192 -272 0
-193 -273 0
-194 -274 0
-195 -275 0
-191 -326 0
-192 -327 0
-193 -328 0
-194 -329 0
-195 -330 0
-191 -346 0
-192 -347 0
-193 -348 0
-194 -349 0
-195 -350 0
-191 -396 0
-192 -397 0
-193 -398 0
-194 -399 0
-195 -400 0
-191 -421 0
-192 -422 0
-193 -423 0
-194 -424 0
-195 -425 0
-191 -431 0
-192 -432 0
-193 -433 0
-194 -434 0
-195 -435 0
-191 -471 0
-192 -472 0
-193 -473 0
-194 -474 0
-195 -475 0
-196 -376 0
-197 -377 0
-198 -378 0
-199 -379 0
-200 -380 0
-201 -226 0
-202 -227 0
-203 -228 0
-204 -229 0
-205 -230 0
-201 -271 0
-202 -272 0
-203 -273 0
-204 -274 0
-205 -275 0
-201 -291 0
-202 -292 0
-203 -293 0
-204 -294 0
-205 -295 0
-201 -496 0
-202 -497 0
-203 -498 0
-204 -499 0
-205 -500 0
-206 -336 0
-207 -337 0
-208 -338 0
-209 -339 0
-210 -340 0
-206 -341 0
-207 -342 0
-208 -343 0
-209 -344 0
-210 -345 0
-206 -466 0
-207 -467 0
-208 -468 0
-209 -469 0
-210 -470 0
-206 -486 0
-207 -487 0
-208 -488 0
-209 -489 0
-210 -490 0
-211 -316 0
-212 -317 0
-213 -318 0
-214 -319 0
-215 -320 0
-211 -341 0
-212 -342 0
-213 -343 0
-214 -344 0
-215 -345 0
-211 -496 0
-212 -497 0
-213 -498 0
-214 -499 0
-215 -500 0
-216 -296 0
-217 -297 0
-218 -298 0
-219 -299 0
-220 -300 0
-216 -321 0
-217 -322 0
-218 -323 0
-219 -324 0
-220 -325 0
-216 -386 0
-217 -387 0
-218 -388 0
-219 -389 0
-220 -390 0
-216 -396 0
-217 -397 0
-218 -398 0
-219 -399 0
-220 -400 0
-221 -306 0
-222 -307 0
-223 -308 0
-224 -309 0
-225 -310 0
-221 -311 0
-222 -312 0
-223 -313 0
-224 -314 0
-225 -315 0
-221 -396 0
-222 -397 0
-223 -398 0
-224 -399 0
-225 -400 0
-226 -266 0
-227 -267 0
-228 -268 0
-229 -269 0
-230 -270 0
-226 -331 0
-227 -332 0
-228 -333 0
-229 -334 0
-230 -335 0
-226 -346 0
-227 -347 0
-228 -348 0
-229 -349 0
-230 -350 0
-226 -456 0
-227 -457 0
-228 -458 0
-229 -459 0
-230 -460 0
-226 -471 0
-227 -472 0
-228 -473 0
-229 -474 0
-230 -475 0
-231 -276 0
-232 -277 0
-233 -278 0
-234 -279 0
-235 -280 0
-231 -291 0
-232 -292 0
-233 -293 0
-234 -294 0
-235 -295 0
-231 -401 0
-232 -402 0
-233 -403 0
-234 -404 0
-235 -405 0
-231 -426 0
-232 -427 0
-233 -428 0
-234 -429 0
-235 -430 0
-231 -451 0
-232 -452 0
-233 -453 0
-234 -454 0
-235 -455 0
-236 -306 0
-237 -307 0
-238 -308 0
-239 -309 0
-240 -310 0
-236 -311 0
-237 -312 0
-238 -313 0
-239 -314 0
-240 -315 0
-236 -326 0
-237 -327 0
-238 -328 0
-239 -329 0
-240 -330 0
-236 -346 0
-237 -347 0
-238 -348 0
-239 -349 0
-240 -350 0
-236 -386 0
-237 -387 0
-238 -388 0
-239 -389 0
-240 -390 0
-241 -266 0
-242 -267 0
-243 -268 0
-244 -269 0
-245 -270 0
-241 -326 0
-242 -327 0
-243 -328 0
-244 -329 0
-245 -330 0
-241 -346 0
-242 -347 0
-243 -348 0
-244 -349 0
-245 -350 0
-241 -376 0
-242 -377 0
-243 -378 0
-244 -379 0
-245 -380 0
-241 -401 0
-242 -402 0
-243 -403 0
-244 -404 0
-245 -405 0
-241 -421 0
-242 -422 0
-243 -423 0
-244 -424 0
-245 -425 0
-246 -396 0
-247 -397 0
-248 -398 0
-249 -399 0
-250 -400 0
-246 -401 0
-247 -402 0
-248 -403 0
-249 -404 0
-250 -405 0
-246 -456 0
-247 -457 0
-248 -458 0
-249 -459 0
-250 -460 0
-251 -301 0
-252 -302 0
-253 -303 0
-254 -304 0
-255 -305 0
-251 -401 0
-252 -402 0
-253 -403 0
-254 -404 0
-255 -405 0
-251 -451 0
-252 -452 0
-253 -453 0
-254 -454 0
-255 -455 0
-256 -306 0
-257 -307 0
-258 -308 0
-259 -309 0
-260 -310 0
-261 -316 0
-262 -317 0
-263 -318 0
-264 -319 0
-265 -320 0
-261 -356 0
-262 -357 0
-263 -358 0
-264 -359 0
-265 -360 0
-261 -366 0
-262 -367 0
-263 -368 0
-264 -369 0
-265 -370 0
-261 -396 0
-262 -397 0
-263 -398 0
-264 -399 0
-265 -400 0
-261 -456 0
-262 -457 0
-263 -458 0
-264 -459 0
-265 -460 0
-266 -361 0
-267 -362 0
-268 -363 0
-269 -364 0
-270 -365 0
-266 -391 0
-267 -392 0
-268 -393 0
-269 -394 0
-270 -395 0
-266 -426 0
-267 -427 0
-268 -428 0
-269 -429 0
-270 -430 0
-266 -441 0
-267 -442 0
-268 -443 0
-269 -444 0
-270 -445 0
-266 -456 0
-267 -457 0
-268 -458 0
-269 -459 0
-270 -460 0
-271 -296 0
-272 -297 0
-273 -298 0
-274 -299 0
-275 -300 0
-271 -301 0
-272 -302 0
-273 -303 0
-274 -304 0
-275 -305 0
-271 -381 0
-272 -382 0
-273 -383 0
-274 -384 0
-275 -385 0
-276 -321 0
-277 -322 0
-278 -323 0
-279 -324 0
-280 -325 0
-276 -411 0
-277 -412 0
-278 -413 0
-279 -414 0
-280 -415 0
-276 -451 0
-277 -452 0
-278 -453 0
-279 -454 0
-280 -455 0
-276 -461 0
-277 -462 0
-278 -463 0
-279 -464 0
-280 -465 0
-281 -321 0
-282 -322 0
-283 -323 0
-284 -324 0
-285 -325 0
-281 -351 0
-282 -352 0
-283 -353 0
-284 -354 0
-285 -355 0
-291 -351 0
-292 -352 0
-293 -353 0
-294 -354 0
-295 -355 0
-296 -336 0
-297 -337 0
-298 -338 0
-299 -339 0
-300 -340 0
-296 -416 0
-297 -417 0
-298 -418 0
-299 -419 0
-300 -420 0
-296 -436 0
-297 -437 0
-298 -438 0
-299 -439 0
-300 -440 0
-301 -471 0
-302 -472 0
-303 -473 0
-304 -474 0
-305 -475 0
-301 -476 0
-302 -477 0
-303 -478 0
-304 -479 0
-305 -480 0
-306 -386 0
-307 -387 0
-308 -388 0
-309 -389 0
-310 -390 0
-306 -466 0
-307 -467 0
-308 -468 0
-309 -469 0
-310 -470 0
-306 -481 0
-307 -482 0
-308 -483 0
-309 -484 0
-310 -485 0
-316 -386 0
-317 -387 0
-318 -388 0
-319 -389 0
-320 -390 0
-316 -481 0
-317 -482 0
-318 -483 0
-319 -484 0
-320 -485 0
-321 -346 0
-322 -347 0
-323 -348 0
-324 -349 0
-325 -350 0
-321 -376 0
-322 -377 0
-323 -378 0
-324 -379 0
-325 -380 0
-321 -381 0
-322 -382 0
-323 -383 0
-324 -384 0
-325 -385 0
-321 -391 0
-322 -392 0
-323 -393 0
-324 -394 0
-325 -395 0
-321 -441 0
-322 -442 0
-323 -443 0
-324 -444 0
-325 -445 0
-321 -446 0
-322 -447 0
-323 -448 0
-324 -449 0
-325 -450 0
-326 -371 0
-327 -372 0
-328 -373 0
-329 -374 0
-330 -375 0
-326 -446 0
-327 -447 0
-328 -448 0
-329 -449 0
-330 -450 0
-331 -366 0
-332 -367 0
-333 -368 0
-334 -369 0
-335 -370 0
-331 -376 0
-332 -377 0
-333 -378 0
-334 -379 0
-335 -380 0
-336 -456 0
-337 -457 0
-338 -458 0
-339 -459 0
-340 -460 0
-341 -381 0
-342 -382 0
-343 -383 0
-344 -384 0
-345 -385 0
-341 -406 0
-342 -407 0
-343 -408 0
-344 -409 0
-345 -410 0
-341 -491 0
-342 -492 0
-343 -493 0
-344 -494 0
-345 -495 0
-346 -381 0
-347 -382 0
-348 -383 0
-349 -384 0
-350 -385 0
-346 -386 0
-347 -387 0
-348 -388 0
-349 -389 0
-350 -390 0
-346 -446 0
-347 -447 0
-348 -448 0
-349 -449 0
-350 -450 0
-351 -396 0
-352 -397 0
-353 -398 0
-354 -399 0
-355 -400 0
-351 -416 0
-352 -417 0
-353 -418 0
-354 -419 0
-355 -420 0
-351 -441 0
-352 -442 0
-353 -443 0
-354 -444 0
-355 -445 0
-356 -411 0
-357 -412 0
-358 -413 0
-359 -414 0
-360 -415 0
-361 -386 0
-362 -387 0
-363 -388 0
-364 -389 0
-365 -390 0
-361 -416 0
-362 -417 0
-363 -418 0
-364 -419 0
-365 -420 0
-361 -436 0
-362 -437 0
-363 -438 0
-364 -439 0
-365 -440 0
-361 -441 0
-362 -442 0
-363 -443 0
-364 -444 0
-365 -445 0
-366 -471 0
-367 -472 0
-368 -473 0
-369 -474 0
-370 -475 0
-381 -461 0
-382 -462 0
-383 -463 0
-384 -464 0
-385 -465 0
-386 -416 0
-387 -417 0
-388 -418 0
-389 -419 0
-390 -420 0
-386 -426 0
-387 -427 0
-388 -428 0
-389 -429 0
-390 -430 0
-386 -466 0
-387 -467 0
-388 -468 0
-389 -469 0
-390 -470 0
-386 -486 0
-387 -487 0
-388 -488 0
-389 -489 0
-390 -490 0
-391 -421 0
-392 -422 0
-393 -423 0
-394 -424 0
-395 -425 0
-391 -481 0
-392 -482 0
-393 -483 0
-394 -484 0
-395 -485 0
-406 -476 0
-407 -477 0
-408 -478 0
-409 -479 0
-410 -480 0
-406 -491 0
-407 -492 0
-408 -493 0
-409 -494 0
-410 -495 0
-411 -496 0
-412 -497 0
-413 -498 0
-414 -499 0
-415 -500 0
-426 -456 0
-427 -457 0
-428 -458 0
-429 -459 0
-430 -460 0
-436 -466 0
-437 -467 0
-438 -468 0
-439 -469 0
-440 -470 0
